\ Model (null)_copy
\ LP format - for model browsing. Use MPS format to capture full model detail.
Minimize
 
Subject To
 C1: X1 - X627 - X1850 - X3072 = 0
 C2: X637 + X1859 + X3081 = 1
 C3: X930 + X2152 + X3374 = 1
 C610: X637 + X930 + X1223 = 1
 C611: X627 - 999999 X637 - X929 >= -499999.5
 C872: X627 - 999999 X930 - X1222 >= -499999.5
 C1133: X627 - 999999 X1223 - X1515 >= -499999.5
 C1742: X1859 + X2152 + X2445 = 1
 C1743: X1850 - 999999 X1859 - X2151 >= -499999.5
 C1744: - 1.414213562373095 X2145 - X2146 + X2151 >= 0
 C1745: X1516 - X2147 = -2
 C1746: X1517 - X2148 = 6
 C1747: X2143 - X2144 - X2149 = 0
 C2004: X1850 - 999999 X2152 - X2444 >= -499999.5
 C2005: - 1.414213562373095 X2438 - X2439 + X2444 >= 0
 C2006: X1516 - X2440 = 7
 C2007: X1517 - X2441 = 8
 C2009: - X2436 + X2438 - 999999 X2443 >= -999999
 C2010: - X2437 + X2438 + 999999 X2443 >= 0
 C2265: X1850 - 999999 X2445 - X2737 >= -499999.5
 C2642: X3072 - 999999 X3081 - X3373 >= -499999.5
 C2903: X3072 - 999999 X3374 - X3666 >= -499999.5
Bounds
 -infinity <= X1 <= 999999
 X627 free
 X1516 = 3
 X1517 = 4
 X1850 free
 X2143 free
 X2144 free
 X2146 free
 X2147 free
 X2148 free
 X2149 free
 X2151 free
 X2436 free
 X2437 free
 X2438 free
 X2440 free
 X2441 free
 X2444 free
Binaries
 X637 X930 X1223 X1859 X2152 X2443 X2445 X3081 X3374
Generals
 X1516 X1517 X2143 X2144 X2145 X2146 X2147 X2148 X2149 X2436 X2437 X2438
 X2439 X2440 X2441
General Constraints
 |vi.x-sj.x|v1->s1: X2143 = ABS ( X2147 )
 |vi.y-sj.y|v1->s1: X2144 = ABS ( X2148 )
 ||vi.x-sj.x|-|vi.y-sj.y||v1->s1: X2146 = ABS ( X2149 )
 |vi.x-sj.x|v1->s2: X2436 = ABS ( X2440 )
 |vi.y-sj.y|v1->s2: X2437 = ABS ( X2441 )
End
